Base=4;
C=78;
start_setup=[|0,0,0,0,0,13,0,4,0,0,0,0,0,0,0,16
             |1,0,0,0,0,0,0,0,0,0,0,0,5,0,0,11
             |0,4,0,0,0,0,0,12,0,0,0,0,0,0,0,0
             |0,0,0,0,2,0,7,0,0,0,3,0,0,0,8,0
             |0,0,0,4,0,0,0,0,0,0,0,0,11,5,15,0
             |0,0,0,0,0,0,0,6,0,0,0,0,0,9,0,0
             |0,0,0,2,0,0,9,0,0,0,0,11,0,0,7,0
             |15,0,0,0,0,0,0,0,0,0,0,0,0,0,1,0
             |0,2,1,0,9,0,0,0,13,0,0,0,0,0,0,0
             |0,0,0,0,0,0,0,0,0,2,11,0,0,0,13,7
             |0,0,0,0,0,0,13,0,0,1,4,0,14,0,11,0
             |0,0,0,0,0,0,0,0,5,0,9,0,0,0,0,0
             |4,0,0,0,0,7,0,0,0,0,0,9,16,0,0,0
             |0,0,0,0,0,0,0,0,4,0,2,0,12,11,0,0
             |0,11,10,0,0,3,0,1,0,15,14,0,0,0,0,0
             |0,0,0,0,0,11,0,9,0,7,6,5,4,3,0,0
|];
target_sum=[49,68,33,22,35,38,20,36,35,11,33,49,75,14,49,8,26,41,26,23,9,33,10,3,7,39,7,25,39,3,30,15,10,40,70,12,44,10,76,24,69,24,44,24,14,44,63,53,15,12,54,22,10,69,12,6,32,30,15,36,36,19,27,26,13,7,33,41,2,13,21,10,15,1,3,33,16,15];
tile2cage=[
39,41,41,41,41,41,17,17,17,53,14,40,40,6,6,6
,39,41,41,9,9,48,48,48,58,53,14,40,2,2,2,6
,39,41,76,9,9,9,48,48,58,44,44,66,2,2,2,38
,39,77,76,78,69,11,11,11,58,37,37,37,36,2,50,50
,39,74,76,67,67,11,62,62,34,37,37,19,36,7,7,60
,39,39,39,75,67,54,54,54,34,34,19,19,33,21,60,60
,39,15,39,12,72,42,54,45,34,34,26,26,26,5,16,49
,15,15,15,12,12,42,54,45,34,3,3,56,5,5,16,49
,68,15,15,12,12,12,54,54,70,3,3,30,5,5,5,73
,68,68,46,25,25,54,54,64,64,64,32,29,29,29,18,73
,68,4,46,28,35,35,35,35,71,64,32,31,31,57,18,18
,10,4,46,28,35,35,35,35,71,71,61,61,61,57,57,18
,10,23,46,28,51,65,65,22,43,43,43,43,61,57,1,52
,8,23,46,46,51,59,22,22,27,27,43,20,63,1,1,52
,8,47,47,46,51,51,55,22,13,13,13,20,63,63,1,1
,8,47,47,47,51,51,55,13,13,13,13,20,20,24,1,1];
